20	5
0	2	2	1
1	4	18	19	17	15
2	1	14
3	1	11
4	2	15	7
5	0
6	1	3
7	1	6
8	1	16
9	3	8	20	17
10	2	18	12
11	1	10
12	0
13	1	8
14	1	4
15	1	13
16	1	21
17	1	21
18	1	21
19	1	21
20	1	21
21	0
0	0	0	0	0	0	0
1	1	0	0	2	0	0
2	6	3	3	2	4	5
3	10	0	1	0	2	3
4	1	4	4	5	5	0
5	4	1	5	4	1	3
6	8	0	0	0	4	0
7	4	4	0	0	0	5
8	7	0	0	1	0	3
9	7	0	4	0	0	5
10	1	4	0	0	4	0
11	9	0	1	3	4	0
12	5	4	0	2	5	4
13	5	0	0	5	1	0
14	5	3	0	1	4	0
15	9	0	1	4	0	0
16	5	0	0	0	3	0
17	9	0	2	0	1	0
18	7	0	0	0	4	0
19	3	0	0	1	5	0
20	6	3	0	0	4	4
21	0	0	0	0	0	0
4	5	5	5	5
